benchmarks_CP/INST_36x36/55/inst36x36_55_26.dzn
S=6;
start=[|
2,	3,	-1,	-1,	-1,	16,	-1,	-1,	19,	30,	-1,	9,	29,	4,	-1,	1,	28,	35,	-1,	-1,	6,	-1,	-1,	-1,	23,	20,	5,	25,	24,	-1,	-1,	-1,	-1,	-1,	32,	34|
-1,	-1,	-1,	-1,	-1,	-1,	-1,	-1,	17,	-1,	-1,	3,	-1,	34,	16,	-1,	-1,	11,	-1,	30,	14,	-1,	35,	15,	22,	31,	6,	-1,	10,	26,	-1,	13,	25,	-1,	23,	-1|
28,	23,	12,	24,	8,	13,	-1,	-1,	36,	31,	22,	-1,	-1,	3,	-1,	-1,	-1,	17,	29,	27,	25,	-1,	9,	-1,	-1,	35,	-1,	-1,	-1,	-1,	5,	-1,	2,	-1,	-1,	-1|
34,	33,	22,	5,	14,	18,	-1,	-1,	-1,	29,	27,	-1,	-1,	32,	-1,	-1,	7,	-1,	20,	-1,	-1,	21,	19,	-1,	28,	13,	4,	9,	-1,	16,	17,	-1,	6,	-1,	-1,	30|
-1,	35,	30,	15,	-1,	21,	-1,	-1,	-1,	20,	-1,	34,	-1,	13,	26,	-1,	-1,	25,	28,	-1,	1,	-1,	-1,	-1,	27,	29,	-1,	-1,	32,	-1,	33,	-1,	-1,	-1,	19,	16|
26,	6,	36,	-1,	-1,	-1,	35,	-1,	-1,	24,	8,	1,	-1,	-1,	-1,	23,	21,	30,	10,	-1,	5,	13,	-1,	34,	15,	-1,	-1,	-1,	-1,	3,	-1,	-1,	-1,	-1,	-1,	28|
-1,	-1,	-1,	36,	-1,	31,	-1,	-1,	14,	-1,	-1,	26,	30,	28,	21,	12,	4,	23,	-1,	-1,	20,	19,	29,	9,	2,	17,	-1,	1,	-1,	-1,	-1,	-1,	3,	-1,	8,	-1|
3,	1,	34,	-1,	24,	17,	7,	29,	-1,	-1,	36,	-1,	5,	11,	-1,	-1,	31,	19,	-1,	-1,	-1,	30,	-1,	25,	13,	14,	-1,	16,	-1,	22,	23,	-1,	35,	-1,	15,	-1|
30,	29,	9,	-1,	15,	-1,	17,	-1,	4,	18,	34,	13,	35,	8,	-1,	16,	24,	6,	21,	12,	-1,	14,	-1,	2,	5,	3,	-1,	-1,	28,	7,	-1,	27,	22,	-1,	-1,	20|
19,	-1,	16,	-1,	28,	20,	-1,	25,	1,	23,	-1,	10,	-1,	29,	36,	13,	34,	33,	-1,	-1,	22,	-1,	-1,	-1,	6,	32,	9,	-1,	-1,	-1,	14,	11,	12,	-1,	-1,	-1|
21,	14,	-1,	-1,	12,	25,	-1,	32,	20,	5,	16,	27,	7,	15,	-1,	17,	-1,	3,	36,	-1,	28,	23,	-1,	8,	18,	24,	-1,	-1,	-1,	29,	13,	30,	-1,	26,	9,	6|
8,	11,	-1,	6,	26,	-1,	22,	-1,	21,	28,	-1,	31,	9,	14,	-1,	-1,	-1,	10,	15,	32,	17,	1,	-1,	16,	30,	36,	12,	-1,	-1,	23,	-1,	24,	7,	18,	5,	-1|
22,	36,	-1,	-1,	-1,	15,	-1,	30,	-1,	9,	-1,	2,	18,	-1,	-1,	-1,	14,	28,	5,	24,	23,	8,	26,	12,	17,	-1,	-1,	-1,	35,	32,	21,	-1,	19,	-1,	10,	-1|
23,	27,	14,	17,	2,	-1,	13,	-1,	16,	15,	19,	29,	11,	-1,	34,	-1,	-1,	8,	-1,	35,	9,	4,	25,	30,	36,	5,	1,	24,	26,	-1,	32,	18,	31,	22,	28,	-1|
9,	-1,	-1,	-1,	-1,	35,	18,	-1,	32,	-1,	-1,	8,	-1,	30,	24,	-1,	29,	-1,	-1,	33,	-1,	-1,	-1,	10,	-1,	-1,	16,	-1,	6,	-1,	15,	25,	23,	5,	11,	2|
4,	-1,	-1,	-1,	10,	34,	25,	17,	33,	11,	-1,	-1,	31,	-1,	9,	3,	2,	5,	-1,	-1,	-1,	-1,	14,	6,	29,	30,	21,	-1,	13,	28,	-1,	-1,	26,	-1,	-1,	-1|
7,	25,	24,	-1,	-1,	26,	-1,	22,	-1,	12,	6,	-1,	-1,	-1,	-1,	-1,	10,	32,	31,	-1,	-1,	29,	-1,	-1,	14,	-1,	-1,	-1,	15,	-1,	16,	17,	-1,	-1,	36,	-1|
-1,	-1,	18,	1,	-1,	5,	-1,	7,	-1,	10,	26,	-1,	15,	6,	-1,	-1,	-1,	27,	-1,	22,	-1,	-1,	28,	-1,	-1,	25,	-1,	31,	-1,	-1,	-1,	9,	-1,	33,	-1,	14|
24,	-1,	4,	28,	1,	3,	9,	2,	-1,	-1,	12,	-1,	16,	5,	11,	-1,	17,	-1,	8,	14,	13,	27,	31,	26,	-1,	-1,	-1,	-1,	33,	-1,	-1,	21,	-1,	10,	29,	-1|
-1,	-1,	-1,	-1,	-1,	2,	1,	11,	6,	-1,	21,	-1,	10,	24,	4,	-1,	26,	20,	19,	9,	-1,	-1,	23,	-1,	3,	-1,	30,	12,	18,	5,	-1,	31,	28,	-1,	16,	25|
-1,	-1,	26,	22,	-1,	36,	-1,	24,	-1,	16,	10,	-1,	-1,	21,	30,	-1,	-1,	-1,	33,	-1,	11,	17,	-1,	-1,	4,	27,	-1,	-1,	23,	-1,	6,	-1,	20,	12,	34,	9|
20,	34,	-1,	19,	-1,	-1,	-1,	4,	-1,	27,	-1,	17,	-1,	35,	22,	2,	-1,	-1,	-1,	29,	-1,	-1,	12,	28,	1,	16,	14,	-1,	21,	11,	3,	33,	18,	24,	7,	-1|
-1,	30,	27,	23,	16,	11,	-1,	-1,	18,	-1,	20,	-1,	19,	-1,	31,	-1,	-1,	-1,	34,	-1,	10,	-1,	-1,	21,	-1,	15,	8,	17,	9,	24,	-1,	-1,	4,	13,	22,	-1|
33,	-1,	-1,	-1,	5,	12,	-1,	-1,	26,	-1,	28,	-1,	-1,	27,	-1,	-1,	-1,	-1,	-1,	-1,	35,	-1,	22,	-1,	-1,	19,	36,	10,	-1,	13,	30,	15,	-1,	17,	-1,	11|
31,	32,	-1,	18,	9,	-1,	16,	-1,	29,	1,	-1,	30,	22,	10,	14,	34,	-1,	-1,	24,	-1,	-1,	-1,	13,	-1,	35,	-1,	3,	2,	-1,	20,	25,	28,	36,	-1,	6,	26|
-1,	-1,	1,	-1,	-1,	22,	-1,	-1,	24,	26,	9,	32,	17,	19,	29,	-1,	5,	-1,	-1,	6,	34,	-1,	-1,	18,	7,	8,	-1,	-1,	16,	-1,	-1,	-1,	-1,	2,	14,	15|
-1,	-1,	29,	8,	-1,	-1,	-1,	10,	2,	34,	-1,	18,	-1,	-1,	-1,	32,	3,	-1,	-1,	26,	30,	-1,	5,	27,	-1,	4,	-1,	-1,	14,	6,	22,	-1,	13,	16,	-1,	-1|
-1,	-1,	-1,	35,	34,	14,	-1,	20,	-1,	-1,	5,	-1,	-1,	-1,	-1,	-1,	6,	-1,	-1,	3,	7,	-1,	15,	29,	10,	-1,	13,	21,	11,	-1,	-1,	32,	-1,	1,	-1,	-1|
-1,	-1,	11,	-1,	6,	-1,	-1,	-1,	-1,	21,	15,	33,	27,	-1,	23,	-1,	20,	2,	14,	28,	19,	35,	32,	-1,	-1,	22,	-1,	-1,	5,	-1,	-1,	-1,	-1,	9,	3,	10|
15,	-1,	-1,	-1,	-1,	10,	14,	6,	-1,	35,	3,	7,	-1,	-1,	-1,	24,	11,	18,	-1,	36,	-1,	-1,	-1,	31,	-1,	-1,	-1,	32,	-1,	1,	12,	-1,	-1,	29,	30,	19|
-1,	2,	3,	11,	33,	29,	19,	1,	-1,	13,	24,	-1,	-1,	-1,	-1,	8,	36,	-1,	22,	-1,	18,	28,	-1,	-1,	9,	-1,	-1,	-1,	-1,	14,	31,	10,	-1,	-1,	27,	35|
-1,	26,	19,	13,	22,	-1,	-1,	15,	25,	14,	31,	28,	12,	2,	3,	21,	-1,	24,	-1,	-1,	-1,	33,	-1,	-1,	-1,	-1,	-1,	-1,	-1,	-1,	9,	34,	16,	-1,	-1,	-1|
5,	-1,	15,	-1,	-1,	30,	26,	8,	-1,	-1,	33,	21,	-1,	-1,	-1,	6,	32,	29,	11,	10,	12,	9,	34,	-1,	16,	1,	-1,	23,	-1,	-1,	4,	36,	14,	-1,	13,	-1|
14,	-1,	-1,	-1,	-1,	-1,	-1,	27,	10,	22,	18,	-1,	4,	-1,	-1,	11,	-1,	-1,	3,	-1,	-1,	5,	8,	19,	-1,	28,	-1,	-1,	-1,	-1,	-1,	26,	21,	32,	20,	-1|
16,	10,	-1,	-1,	18,	-1,	-1,	9,	5,	7,	-1,	-1,	1,	-1,	-1,	-1,	13,	-1,	-1,	25,	-1,	-1,	-1,	-1,	8,	-1,	-1,	15,	-1,	-1,	11,	6,	29,	-1,	17,	12|
-1,	31,	6,	7,	-1,	-1,	-1,	-1,	-1,	17,	29,	-1,	14,	18,	5,	10,	27,	-1,	1,	23,	21,	26,	16,	20,	25,	2,	24,	13,	3,	-1,	-1,	8,	15,	-1,	33,	-1|];
